
Gurobi 12.0.1 (win64, Python) logging started Tue Apr 15 11:41:14 2025

Set parameter Username
Set parameter LicenseID to value 2642605
Set parameter LogFile to value "gurobi.log"
Academic license - for non-commercial use only - expires 2026-03-26
